\ENCODING=ISO-8859-1
\Problem name: ilog.cplex

Minimize
 obj: 0 x30 + 0 x31 + 0 x32 + 0 x33 + 0 x34 + 0 x35 + 0 x36 + 0 x37 + 0 x38
      + 0 x39 + 0 x40 + 0 x41 + 0 x42 + 0 x43 + 0 x44 + 0 x45 + 0 x46 + 0 x47
      + 0 x48 + 0 x49 + 0 x50 + 0 x51 + 0 x52 + 0 x53 + 0 x54 + 0 x55 + 0 x56
      + 0 x57 + 0 x58 + 0 x59 + 0 x60 + 0 x61 + 0 x62 + 0 x63 + 0 x64 + 0 x65
      + 0 x66 + 0 x67 + 0 x68 + 0 x69 + 0 x70 + [ 0.035 x1 ^2 + 0.035 x2 ^2
      + 0.035 x3 ^2 + 0.035 x4 ^2 + 0.035 x5 ^2 + 0.035 x6 ^2 + 0.035 x7 ^2
      + 0.035 x8 ^2 + 0.035 x9 ^2 + 0.035 x10 ^2 + 0.035 x11 ^2 + 0.035 x12 ^2
      + 0.035 x13 ^2 + 0.035 x14 ^2 + 0.035 x15 ^2 + 0.035 x16 ^2
      + 0.035 x17 ^2 + 0.035 x18 ^2 + 0.035 x19 ^2 + 0.035 x20 ^2
      + 0.035 x21 ^2 + 0.035 x22 ^2 + 0.035 x23 ^2 + 0.035 x24 ^2
      + 0.035 x25 ^2 + 0.035 x26 ^2 + 0.035 x27 ^2 + 0.035 x28 ^2
      + 0.035 x29 ^2 + 0.035 x30 ^2 + 0.035 x31 ^2 + 0.035 x32 ^2
      + 0.035 x33 ^2 + 0.035 x34 ^2 + 0.035 x35 ^2 + 0.035 x36 ^2
      + 0.035 x37 ^2 + 0.035 x38 ^2 + 0.035 x39 ^2 + 0.035 x40 ^2
      + 0.035 x41 ^2 + 0.035 x42 ^2 + 0.035 x43 ^2 + 0.035 x44 ^2
      + 0.035 x45 ^2 + 0.035 x46 ^2 + 0.035 x47 ^2 + 0.035 x48 ^2
      + 0.035 x49 ^2 + 0.035 x50 ^2 + 0.035 x51 ^2 + 0.035 x52 ^2
      + 0.035 x53 ^2 + 0.035 x54 ^2 + 0.035 x55 ^2 + 0.035 x56 ^2
      + 0.035 x57 ^2 + 0.035 x58 ^2 + 0.035 x59 ^2 + 0.035 x60 ^2
      + 0.035 x61 ^2 + 0.035 x62 ^2 + 0.035 x63 ^2 + 0.035 x64 ^2
      + 0.035 x65 ^2 + 0.035 x66 ^2 + 0.035 x67 ^2 + 0.035 x68 ^2
      + 0.035 x69 ^2 + 0.035 x70 ^2 + 0.035 x71 ^2 + 0.035 x72 ^2
      + 0.035 x73 ^2 + 0.035 x74 ^2 + 0.035 x75 ^2 + 0.035 x76 ^2
      + 0.035 x77 ^2 + 0.035 x78 ^2 + 0.035 x79 ^2 + 0.035 x80 ^2
      + 0.035 x81 ^2 + 0.035 x82 ^2 + 0.035 x83 ^2 + 0.035 x84 ^2
      + 0.035 x85 ^2 + 0.035 x86 ^2 + 0.035 x87 ^2 + 0.035 x88 ^2
      + 0.035 x89 ^2 + 0.035 x90 ^2 + 0.035 x91 ^2 + 0.035 x92 ^2
      + 0.035 x93 ^2 + 0.035 x94 ^2 + 0.035 x95 ^2 + 0.035 x96 ^2 ] / 2
Subject To
 c1:   x1 + x2 + x3 + x4 + x5 + x6 + x7 + x8 + x9 + x10 + x11 + x12 + x13 + x14
       + x15 + x16 + x17 + x18 + x19 + x20 + x21 + x22 + x23 + x24 + x25 + x26
       + x27 + x28 + x29 + x71 + x72 + x73 + x74 + x75 + x76 + x77 + x78 + x79
       + x80 + x81 + x82 + x83 + x84 + x85 + x86 + x87 + x88 + x89 + x90 + x91
       + x92 + x93 + x94 + x95 + x96  = 18.6891096774194
 c3:   x71 <= 18.6892096774194
 c5:   x71 >= -61.7410978494624
 c7:   x71 + x72 <= 18.6892096774194
 c9:   x71 + x72 >= -61.7410978494624
 c11:  x71 + x72 + x73 <= 18.6892096774194
 c13:  x71 + x72 + x73 >= -61.7410978494624
 c15:  x71 + x72 + x73 + x74 <= 18.6892096774194
 c17:  x71 + x72 + x73 + x74 >= -61.7410978494624
 c19:  x71 + x72 + x73 + x74 + x75 <= 18.6892096774194
 c21:  x71 + x72 + x73 + x74 + x75 >= -61.7410978494624
 c23:  x71 + x72 + x73 + x74 + x75 + x76 <= 18.6892096774194
 c25:  x71 + x72 + x73 + x74 + x75 + x76 >= -61.7410978494624
 c27:  x71 + x72 + x73 + x74 + x75 + x76 + x77 <= 18.6892096774194
 c29:  x71 + x72 + x73 + x74 + x75 + x76 + x77 >= -61.7410978494624
 c31:  x71 + x72 + x73 + x74 + x75 + x76 + x77 + x78 <= 18.6892096774194
 c33:  x71 + x72 + x73 + x74 + x75 + x76 + x77 + x78 >= -61.7410978494624
 c35:  x71 + x72 + x73 + x74 + x75 + x76 + x77 + x78 + x79 <= 18.6892096774194
 c37:  x71 + x72 + x73 + x74 + x75 + x76 + x77 + x78 + x79 >= -61.7410978494624
 c39:  x71 + x72 + x73 + x74 + x75 + x76 + x77 + x78 + x79 + x80
       <= 18.6892096774194
 c41:  x71 + x72 + x73 + x74 + x75 + x76 + x77 + x78 + x79 + x80
       >= -61.7410978494624
 c43:  x71 + x72 + x73 + x74 + x75 + x76 + x77 + x78 + x79 + x80 + x81
       <= 18.6892096774194
 c45:  x71 + x72 + x73 + x74 + x75 + x76 + x77 + x78 + x79 + x80 + x81
       >= -61.7410978494624
 c47:  x71 + x72 + x73 + x74 + x75 + x76 + x77 + x78 + x79 + x80 + x81 + x82
       <= 18.6892096774194
 c49:  x71 + x72 + x73 + x74 + x75 + x76 + x77 + x78 + x79 + x80 + x81 + x82
       >= -61.7410978494624
 c51:  x71 + x72 + x73 + x74 + x75 + x76 + x77 + x78 + x79 + x80 + x81 + x82
       + x83 <= 18.6892096774194
 c53:  x71 + x72 + x7+ x70 + x71 + x72 + x73 + x74 + x75 + x76 + x77 + x78
       + x79 >= -61.7410978494624
 c55:  x67 + x68 + x69 + x70 + x71 + x72 + x73 + x74 + x75 + x76 + x77 + x78
       + x79 + x80 <= 18.6892096774194
 c57:  x67 + x68 + x69 + x70 + x71 + x72 + x73 + x74 + x75 + x76 + x77 + x78
       + x79 + x80 >= -61.7410978494624
 c59:  x67 + x68 + x69 + x70 + x71 + x72 + x73 + x74 + x75 + x76 + x77 + x78
       + x79 + x80 + x81 <= 18.6892096774194
 c61:  x67 + x68 + x69 + x70 + x71 + x72 + x73 + x74 + x75 + x76 + x77 + x78
       + x79 + x80 + x81 >= -61.7410978494624
 c63:  x67 + x68 + x69 + x70 + x71 + x72 + x73 + x74 + x75 + x76 + x77 + x78
       + x79 + x80 + x81 + x82 <= 18.6892096774194
 c65:  x67 + x68 + x69 + x70 + x71 + x72 + x73 + x74 + x75 + x76 + x77 + x78
       + x79 + x80 + x81 + x82 >= -61.7410978494624
 c67:  x67 + x68 + x69 + x70 + x71 + x72 + x73 + x74 + x75 + x76 + x77 + x78
       + x79 + x80 + x81 + x82 + x83 <= 18.6892096774194
 c69:  x67 + x68 + x69 + x70 + x71 + x72 + x73 + x74 + x75 + x76 + x77 + x78
       + x79 + x80 + x81 + x82 + x83 >= -61.7410978494624
 c71:  x67 + x68 + x69 + x70 + x71 + x72 + x73 + x74 + x75 + x76 + x77 + x78
       + x79 + x80 + x81 + x82 + x83 + x84 <= 18.6892096774194
 c73:  x67 + x68 + x69 + x70 + x71 + x72 + x73 + x74 + x75 + x76 + x77 + x78
       + x79 + x80 + x81 + x82 + x83 + x84 >= -61.7410978494624
 c75:  x67 + x68 + x69 + x70 + x71 + x72 + x73 + x74 + x75 + x76 + x77 + x78
       + x79 + x80 + x81 + x82 + x83 + x84 + x85 <= 18.6892096774194
 c77:  x67 + x68 + x69 + x70 + x71 + x72 + x73 + x74 + x75 + x76 + x77 + x78
       + x79 + x80 + x81 + x82 + x83 + x84 + x85 >= -61.7410978494624
 c79:  x67 + x68 + x69 + x70 + x71 + x72 + x73 + x74 + x75 + x76 + x77 + x78
       + x79 + x80 + x81 + x82 + x83 + x84 + x85 + x86 <= 18.6892096774194
 c81:  x67 + x68 + x69 + x70 + x71 + x72 + x73 + x74 + x75 + x76 + x77 + x78
       + x79 + x80 + x81 + x82 + x83 + x84 + x85 + x86 >= -61.7410978494624
 c83:  x67 + x68 + x69 + x70 + x71 + x72 + x73 + x74 + x75 + x76 + x77 + x78
       + x79 + x80 + x81 + x82 + x83 + x84 + x85 + x86 + x87
       <= 18.6892096774194
 c85:  x67 + x68 + x69 + x70 + x71 + x72 + x73 + x74 + x75 + x76 + x77 + x78
       + x79 + x80 + x81 + x82 + x83 + x84 + x85 + x86 + x87
       >= -61.7410978494624
 c87:  x67 + x68 + x69 + x70 + x71 + x72 + x73 + x74 + x75 + x76 + x77 + x78
       + x79 + x80 + x81 + x82 + x83 + x84 + x85 + x86 + x87 + x88
       <= 18.6892096774194
 c89:  x67 + x68 + x69 + x70 + x71 + x72 + x73 + x74 + x75 + x76 + x77 + x78
       + x79 + x80 + x81 + x82 + x83 + x84 + x85 + x86 + x87 + x88
       >= -61.7410978494624
 c91:  x67 + x68 + x69 + x70 + x71 + x72 + x73 + x74 + x75 + x76 + x77 + x78
       + x79 + x80 + x81 + x82 + x83 + x84 + x85 + x86 + x87 + x88 + x89
       <= 18.6892096774194
 c93:  x67 + x68 + x69 + x70 + x71 + x72 + x73 + x74 + x75 + x76 + x77 + x78
       + x79 + x80 + x81 + x82 + x83 + x84 + x85 + x86 + x87 + x88 + x89
       >= -61.7410978494624
 c95:  x67 + x68 + x69 + x70 + x71 + x72 + x73 + x74 + x75 + x76 + x77 + x78
       + x79 + x80 + x81 + x82 + x83 + x84 + x85 + x86 + x87 + x88 + x89 + x90
       <= 18.6892096774194
 c97:  x67 + x68 + x69 + x70 + x71 + x72 + x73 + x74 + x75 + x76 + x77 + x78
       + x79 + x80 + x81 + x82 + x83 + x84 + x85 + x86 + x87 + x88 + x89 + x90
       >= -61.7410978494624
 c99:  x67 + x68 + x69 + x70 + x71 + x72 + x73 + x74 + x75 + x76 + x77 + x78
       + x79 + x80 + x81 + x82 + x83 + x84 + x85 + x86 + x87 + x88 + x89 + x90
       + x91 <= 18.6892096774194
 c101: x67 + x68 + x69 + x70 + x71 + x72 + x73 + x74 + x75 + x76 + x77 + x78
       + x79 + x80 + x81 + x82 + x83 + x84 + x85 + x86 + x87 + x88 + x89 + x90
       + x91 >= -61.7410978494624
 c103: x67 + x68 + x69 + x70 + x71 + x72 + x73 + x74 + x75 + x76 + x77 + x78
       + x79 + x80 + x81 + x82 + x83 + x84 + x85 + x86 + x87 + x88 + x89 + x90
       + x91 + x92 <= 18.6892096774194
 c105: x67 + x68 + x69 + x70 + x71 + x72 + x73 + x74 + x75 + x76 + x77 + x78
       + x79 + x80 + x81 + x82 + x83 + x84 + x85 + x86 + x87 + x88 + x89 + x90     + x90 + x91 >= -58.6262462365591
 c107: x66 + x67 + x68 + x69 + x70 + x71 + x72 + x73 + x74 + x75 + x76 + x77
       + x78 + x79 + x80 + x81 + x82 + x83 + x84 + x85 + x86 + x87 + x88 + x89
       + x90 + x91 + x92 <= 21.8040612903226
 c109: x66 + x67 + x68 + x69 + x70 + x71 + x72 + x73 + x74 + x75 + x76 + x77
       + x78 + x79 + x80 + x81 + x82 + x83 + x84 + x85 + x86 + x87 + x88 + x89
       + x90 + x91 + x92 >= -58.6262462365591
 c111: x66 + x67 + x68 + x69 + x70 + x71 + x72 + x73 + x74 + x75 + x76 + x77
       + x78 + x79 + x80 + x81 + x82 + x83 + x84 + x85 + x86 + x87 + x88 + x89
       + x90 + x91 + x92 + x93 <= 21.8040612903226
 c113: x66 + x67 + x68 + x69 + x70 + x71 + x72 + x73 + x74 + x75 + x76 + x77
       + x78 + x79 + x80 + x81 + x82 + x83 + x84 + x85 + x86 + x87 + x88 + x89
       + x90 + x91 + x92 + x93 >= -58.6262462365591
 c115: x66 + x67 + x68 + x69 + x70 + x71 + x72 + x73 + x74 + x75 + x76 + x77
       + x78 + x79 + x80 + x81 + x82 + x83 + x84 + x85 + x86 + x87 + x88 + x89
       + x90 + x91 + x92 + x93 + x94 <= 21.8040612903226
 c117: x66 + x67 + x68 + x69 + x70 + x71 + x72 + x73 + x74 + x75 + x76 + x77
       + x78 + x79 + x80 + x81 + x82 + x83 + x84 + x85 + x86 + x87 + x88 + x89
       + x90 + x91 + x92 + x93 + x94 >= -58.6262462365591
 c119: x66 + x67 + x68 + x69 + x70 + x71 + x72 + x73 + x74 + x75 + x76 + x77
       + x78 + x79 + x80 + x81 + x82 + x83 + x84 + x85 + x86 + x87 + x88 + x89
       + x90 + x91 + x92 + x93 + x94 + x95 <= 21.8040612903226
 c121: x66 + x67 + x68 + x69 + x70 + x71 + x72 + x73 + x74 + x75 + x76 + x77
       + x78 + x79 + x80 + x81 + x82 + x83 + x84 + x85 + x86 + x87 + x88 + x89
       + x90 + x91 + x92 + x93 + x94 + x95 >= -58.6262462365591
 c123: x66 + x67 + x68 + x69 + x70 + x71 + x72 + x73 + x74 + x75 + x76 + x77
       + x78 + x79 + x80 + x81 + x82 + x83 + x84 + x85 + x86 + x87 + x88 + x89
       + x90 + x91 + x92 + x93 + x94 + x95 + x96 <= 21.8040612903226
 c125: x66 + x67 + x68 + x69 + x70 + x71 + x72 + x73 + x74 + x75 + x76 + x77
       + x78 + x79 + x80 + x81 + x82 + x83 + x84 + x85 + x86 + x87 + x88 + x89
       + x90 + x91 + x92 + x93 + x94 + x95 + x96 >= -58.6262462365591
 c127: x1 + x66 + x67 + x68 + x69 + x70 + x71 + x72 + x73 + x74 + x75 + x76
       + x77 + x78 + x79 + x80 + x81 + x82 + x83 + x84 + x85 + x86 + x87 + x88
       + x89 + x90 + x91 + x92 + x93 + x94 + x95 + x96 <= 21.8040612903226
 c129: x1 + x66 + x67 + x68 + x69 + x70 + x71 + x72 + x73 + x74 + x75 + x76
       + x77 + x78 + x79 + x80 + x81 + x82 + x83 + x84 + x85 + x86 + x87 + x88
       + x89 + x90 + x91 + x92 + x93 + x94 + x95 + x96 >= -58.6262462365591
 c131: x1 + x2 + x66 + x67 + x68 + x69 + x70 + x71 + x72 + x73 + x74 + x75
       + x76 + x77 + x78 + x79 + x80 + x81 + x82 + x83 + x84 + x85 + x86 + x87
       + x88 + x89 + x90 + x91 + x92 + x93 + x94 + x95 + x96
       <= 21.8040612903226
 c133: x1 + x2 + x66 + x67 + x68 + x69 + x70 + x71 + x72 + x73 + x74 + x75
       + x76 + x77 + x78 + x79 + x80 + x81 + x82 + x83 + x84 + x85 + x86 + x87
       + x88 + x89 + x90 + x91 + x92 + x93 + x94 + x95 + x96
       >= -58.6262462365591
 c135: x1 + x2 + x3 + x66 + x67 + x68 + x69 + x70 + x71 + x72 + x73 + x74 + x75
       + x76 + x77 + x78 + x79 + x80 + x81 + x82 + x83 + x84 + x85 + x86 + x87
       + x88 + x89 + x90 + x91 + x92 + x93 + x94 + x95 + x96
       <= 21.8040612903226
 c137: x1 + x2 + x3 + x66 + x67 + x68 + x69 + x70 + x71 + x72 + x73 + x74 + x75
       + x76 + x77 + x78 + x79 + x80 + x81 + x82 + x83 + x84 + x85 + x86 + x87
       + x88 + x89 + x90 + x91 + x92 + x93 + x94 + x95 + x96
       >= -58.6262462365591
 c139: x1 + x2 + x3 + x4 + x66 + x67 + x68 + x69 + x70 + x71 + x72 + x73 + x74
       + x75 + x76 + x77 + x78 + x79 + x80 + x81 + x82 + x83 + x84 + x85 + x86
       + x87 + x88 + x89 + x90 + x91 + x92 + x93 + x94 + x95 + x96
       <= 21.8040612903226
 c141: x1 + x2 + x3 + x4 + x66 + x67 + x68 + x69 + x70 + x71 + x72 + x73 + x74
       + x75 + x76 + x77 + x78 + x79 + x80 + x81 + x82 + x83 + x84 + x85 + x86
       + x87 + x88 + x89 + x90 + x91 + x92 + x93 + x94 + x95 + x96
       >= -58.6262462365591
 c143: x1 + x2 + x3 + x4 + x5 + x66 + x67 + x68 + x69 + x70 + x71 + x72 + x73
       + x74 + x75 + x76 + x77 + x78 + x79 + x80 + x81 + x82 + x83 + x84 + x85
       + x86 + x87 + x88 + x89 + x90 + x91 + x92 + x93 + x94 + x95 + x96
       <= 21.8040612903226
 c145: x1 + x2 + x3 + x4 + x5 + x66 + x67 + x68 + x69 + x70 + x71 + x72 + x73
       + x74 + x75 + x76 + x77 + x78 + x79 + x80 + x81 + x82 + x83 + x84 + x85
       + x86 + x87 + x88 + x89 + x90 + x91 + x92 + x93 + x94 + x95 + x96
       >= -58.6262462365591
 c147: x1 + x2 + x3 + x4 + x5 + x6 + x66 + x67 + x68 + x69 + x70 + x71 + x72
       + x73 + x74 + x75 + x76 + x77 + x78 + x79 + x80 + x81 + x82 + x83 + x84
       + x85 + x86 + x87 + x88 + x89 + x90 + x91 + x92 + x93 + x94 + x95 + x96
       <= 21.8040612903226
 c149: x1 + x2 + x3 + x4 + x5 + x6 + x66 + x67 + x68 + x69 + x70 + x71 + x72
       + x73 + x74 + x75 + x76 + x77 + x78 + x79 + x80 + x81 + x82 + x83 + x84
       + x85 + x86 + x87 + x88 + x89 + x90 + x91 + x92 + x93 + x94 + x95 + x96
       >= -58.6262462365591
 c151: x1 + x2 + x3 + x4 + x5 + x6 + x7 + x66 + x67 + x68 + x69 + x70 + x71
       + x72 + x73 + x74 + x75 + x76 + x77 + x78 + x79 + x80 + x81 + x82 + x83
       + x84 + x85 + x86 + x87 + x88 + x89 + x90 + x91 + x92 + x93 + x94 + x95
       + x96 <= 21.8040612903226
 c153: x1 + x2 + x3 + x4 + x5 + x6 + x7 + x66 + x67 + x68 + x69 + x70 + x71
       + x72 + x73 + x74 + x75 + x76 + x77 + x78 + x79 + x80 + x81 + x82 + x83
       + x84 + x85 + x86 + x87 + x88 + x89 + x90 + x91 + x92 + x93 + x94 + x95
       + x96 >= -58.6262462365591
 c155: x1 + x2 + x3 + x4 + x5 + x6 + x7 + x8 + x66 + x67 + x68 + x69 + x70
       + x71 + x72 + x73 + x74 + x75 + x76 + x77 + x78 + x79 + x80 + x81 + x82
       + x83 + x84 + x85 + x86 + x87 + x88 + x89 + x90 + x91 + x92 + x93 + x94
       + x95 + x96 <= 21.8040612903226
 c157: x1 + x2 + x3 + x4 + x5 + x6 + x7 + x8 + x66 + x67 + x68 + x69 + x70
       + x71 + x72 + x73 + x74 + x75 + x76 + x77 + x78 + x79 + x80 + x81 + x82
       + x83 + x84 + x85 + x86 + x87 + x88 + x89 + x90 + x91 + x92 + x93 + x94
       + x95 + x96 >= -58.6262462365591
 c159: x1 + x2 + x3 + x4 + x5 + x6 + x7 + x8 + x9 + x66 + x67 + x68 + x69 + x70
       + x71 + x72 + x73 + x74 + x75 + x76 + x77 + x78 + x79 + x80 + x81 + x82
       + x83 + x84 + x85 + x86 + x87 + x88 + x89 + x90 + x91 + x92 + x93 + x94
       + x95 + x96 <= 21.8040612903226
 c161: x1 + x2 + x3 + x4 + x5 + x6 + x7 + x8 + x9 + x66 + x67 + x68 + x69 + x70
       + x71 + x72 + x73 + x74 + x75 + x76 + x77 + x78 + x79 + x80 + x81 + x82
       + x83 + x84 + x85 + x86 + x87 + x88 + x89 + x90 + x91 + x92 + x93 + x94
       + x95 + x96 >= -58.6262462365591
 c163: x1 + x2 + x3 + x4 + x5 + x6 + x7 + x8 + x9 + x10 + x66 + x67 + x68 + x69
       + x70 + x71 + x72 + x73 + x74 + x75 + x76 + x77 + x78 + x79 + x80 + x81
       + x82 + x83 + x84 + x85 + x86 + x87 + x88 + x89 + x90 + x91 + x92 + x93
       + x94 + x95 + x96 <= 21.8040612903226
 c165: x1 + x2 + x3 + x4 + x5 + x6 + x7 + x8 + x9 + x10 + x66 + x67 + x68 + x69
       + x70 + x71 + x72 + x73 + x74 + x75 + x76 + x77 + x78 + x79 + x80 + x81
       + x82 + x83 + x84 + x85 + x86 + x87 + x88 + x89 + x90 + x91 + x92 + x93
       + x94 + x95 + x96 >= -58.6262462365591
 c167: x1 + x2 + x3 + x4 + x5 + x6 + x7 + x8 + x9 + x10 + x11 + x66 + x67 + x68
       + x69 + x70 + x71 + x72 + x73 + x74 + x75 + x76 + x77 + x78 + x79 + x80
       + x81 + x82 + x83 + x84 + x85 + x86 + x87 + x88 + x89 + x90 + x91 + x92
       + x93 + x94 + x95 + x96 <= 21.8040612903226
 c169: x1 + x2 + x3 + x4 + x5 + x6 + x7 + x8 + x9 + x10 + x11 + x66 + x67 + x68
       + x69 + x70 + x71 + x72 + x73 + x74 + x75 + x76 + x77 + x78 + x79 + x80
       + x81 + x82 + x83 + x84 + x85 + x86 + x87 + x88 + x89 + x90 + x91 + x92
       + x93 + x94 + x95 + x96 >= -58.6262462365591
 c171: x1 + x2 + x3 + x4 + x5 + x6 + x7 + x8 + x9 + x10 + x11 + x12 + x66 + x67
       + x68 + x69 + x70 + x71 + x72 + x73 + x74 + x75 + x76 + x77 + x78 + x79
       + x80 + x81 + x82 + x83 + x84 + x85 + x86 + x87 + x88 + x89 + x90 + x91
       + x92 + x93 + x94 + x95 + x96 <= 21.8040612903226
 c173: x1 + x2 + x3 + x4 + x5 + x6 + x7 + x8 + x9 + x10 + x11 + x12 + x66 + x67
       + x68 + x69 + x70 + x71 + x72 + x73 + x74 + x75 + x76 + x77 + x78 + x79
       + x80 + x81 + x82 + x83 + x84 + x85 + x86 + x87 + x88 + x89 + x90 + x91
       + x92 + x93 + x94 + x95 + x96 >= -58.6262462365591
 c175: x1 + x2 + x3 + x4 + x5 + x6 + x7 + x8 + x9 + x10 + x11 + x12 + x13 + x66
       + x67 + x68 + x69 + x70 + x71 + x72 + x73 + x74 + x75 + x76 + x77 + x78
       + x79 + x80 + x81 + x82 + x83 + x84 + x85 + x86 + x87 + x88 + x89 + x90
       + x91 + x92 + x93 + x94 + x95 + x96 <= 21.8040612903226
 c177: x1 + x2 + x3 + x4 + x5 + x6 + x7 + x8 + x9 + x10 + x11 + x12 + x13 + x66
       + x67 + x68 + x69 + x70 + x71 + x72 + x73 + x74 + x75 + x76 + x77 + x78
       + x79 + x80 + x81 + x82 + x83 + x84 + x85 + x86 + x87 + x88 + x89 + x90
       + x91 + x92 + x93 + x94 + x95 + x96 >= -58.6262462365591
 c179: x1 + x2 + x3 + x4 + x5 + x6 + x7 + x8 + x9 + x10 + x11 + x12 + x13 + x14
       + x66 + x67 + x68 + x69 + x70 + x71 + x72 + x73 + x74 + x75 + x76 + x77
       + x78 + x79 + x80 + x81 + x82 + x83 + x84 + x85 + x86 + x87 + x88 + x89
       + x90 + x91 + x92 + x93 + x94 + x95 + x96 <= 21.8040612903226
 c181: x1 + x2 + x3 + x4 + x5 + x6 + x7 + x8 + x9 + x10 + x11 + x12 + x13 + x14
       + x66 + x67 + x68 + x69 + x70 + x71 + x72 + x73 + x74 + x75 + x76 + x77
       + x78 + x79 + x80 + x81 + x82 + x83 + x84 + x85 + x86 + x87 + x88 + x89
       + x90 + x91 + x92 + x93 + x94 + x95 + x96 >= -58.6262462365591
 c183: x1 + x2 + x3 + x4 + x5 + x6 + x7 + x8 + x9 + x10 + x11 + x12 + x13 + x14
       + x15 + x66 + x67 + x68 + x69 + x70 + x71 + x72 + x73 + x74 + x75 + x76
       + x77 + x78 + x79 + x80 + x81 + x82 + x83 + x84 + x85 + x86 + x87 + x88
       + x89 + x90 + x91 + x92 + x93 + x94 + x95 + x96 <= 21.8040612903226
 c185: x1 + x2 + x3 + x4 + x5 + x6 + x7 + x8 + x9 + x10 + x11 + x12 + x13 + x14
       + x15 + x66 + x67 + x68 + x69 + x70 + x71 + x72 + x73 + x74 + x75 + x76
       + x77 + x78 + x79 + x80 + x81 + x82 + x83 + x84 + x85 + x86 + x87 + x88
       + x89 + x90 + x91 + x92 + x93 + x94 + x95 + x96 >= -58.6262462365591
 c187: x1 + x2 + x3 + x4 + x5 + x6 + x7 + x8 + x9 + x10 + x11 + x12 + x13 + x14
       + x15 + x16 + x66 + x67 + x68 + x69 + x70 + x71 + x72 + x73 + x74 + x75
       + x76 + x77 + x78 + x79 + x80 + x81 + x82 + x83 + x84 + x85 + x86 + x87
       + x88 + x89 + x90 + x91 + x92 + x93 + x94 + x95 + x96
       <= 21.8040612903226
 c189: x1 + x2 + x3 + x4 + x5 + x6 + x7 + x8 + x9 + x10 + x11 + x12 + x13 + x14
       + x15 + x16 + x66 + x67 + x68 + x69 + x70 + x71 + x72 + x73 + x74 + x75
       + x76 + x77 + x78 + x79 + x80 + x81 + x82 + x83 + x84 + x85 + x86 + x87
       + x88 + x89 + x90 + x91 + x92 + x93 + x94 + x95 + x96
       >= -58.6262462365591
 c191: x1 + x2 + x3 + x4 + x5 + x6 + x7 + x8 + x9 + x10 + x11 + x12 + x13 + x14
       + x15 + x16 + x17 + x66 + x67 + x68 + x69 + x70 + x71 + x72 + x73 + x74
       + x75 + x76 + x77 + x78 + x79 + x80 + x81 + x82 + x83 + x84 + x85 + x86
       + x87 + x88 + x89 + x90 + x91 + x92 + x93 + x94 + x95 + x96
       <= 21.8040612903226
 c193: x1 + x2 + x3 + x4 + x5 + x6 + x7 + x8 + x9 + x10 + x11 + x12 + x13 + x14
       + x15 + x16 + x17 + x66 + x67 + x68 + x69 + x70 + x71 + x72 + x73 + x74
       + x75 + x76 + x77 + x78 + x79 + x80 + x81 + x82 + x83 + x84 + x85 + x86
       + x87 + x88 + x89 + x90 + x91 + x92 + x93 + x94 + x95 + x96
       >= -58.6262462365591
 c195: x1 + x2 + x3 + x4 + x5 + x6 + x7 + x8 + x9 + x10 + x11 + x12 + x13 + x14
       + x15 + x16 + x17 + x18 + x66 + x67 + x68 + x69 + x70 + x71 + x72 + x73
       + x74 + x75 + x76 + x77 + x78 + x79 + x80 + x81 + x82 + x83 + x84 + x85
       + x86 + x87 + x88 + x89 + x90 + x91 + x92 + x93 + x94 + x95 + x96
       <= 21.8040612903226
 c197: x1 + x2 + x3 + x4 + x5 + x6 + x7 + x8 + x9 + x10 + x11 + x12 + x13 + x14
       + x15 + x16 + x17 + x18 + x66 + x67 + x68 + x69 + x70 + x71 + x72 + x73
       + x74 + x75 + x76 + x77 + x78 + x79 + x80 + x81 + x82 + x83 + x84 + x85
       + x86 + x87 + x88 + x89 + x90 + x91 + x92 + x93 + x94 + x95 + x96
       >= -58.6262462365591
 c199: x1 + x2 + x3 + x4 + x5 + x6 + x7 + x8 + x9 + x10 + x11 + x12 + x13 + x14
       + x15 + x16 + x17 + x18 + x19 + x66 + x67 + x68 + x69 + x70 + x71 + x72
       + x73 + x74 + x75 + x76 + x77 + x78 + x79 + x80 + x81 + x82 + x83 + x84
       + x85 + x86 + x87 + x88 + x89 + x90 + x91 + x92 + x93 + x94 + x95 + x96
       <= 21.8040612903226
 c201: x1 + x2 + x3 + x4 + x5 + x6 + x7 + x8 + x9 + x10 + x11 + x12 + x13 + x14
       + x15 + x16 + x17 + x18 + x19 + x66 + x67 + x68 + x69 + x70 + x71 + x72
       + x73 + x74 + x75 + x76 + x77 + x78 + x79 + x80 + x81 + x82 + x83 + x84
       + x85 + x86 + x87 + x88 + x89 + x90 + x91 + x92 + x93 + x94 + x95 + x96
       >= -58.6262462365591
 c203: x1 + x2 + x3 + x4 + x5 + x6 + x7 + x8 + x9 + x10 + x11 + x12 + x13 + x14
       + x15 + x16 + x17 + x18 + x19 + x20 + x66 + x67 + x68 + x69 + x70 + x71
       + x72 + x73 + x74 + x75 + x76 + x77 + x78 + x79 + x80 + x81 + x82 + x83
       + x84 + x85 + x86 + x87 + x88 + x89 + x90 + x91 + x92 + x93 + x94 + x95
       + x96 <= 21.8040612903226
 c205: x1 + x2 + x3 + x4 + x5 + x6 + x7 + x8 + x9 + x10 + x11 + x12 + x13 + x14
       + x15 + x16 + x17 + x18 + x19 + x20 + x66 + x67 + x68 + x69 + x70 + x71
       + x72 + x73 + x74 + x75 + x76 + x77 + x78 + x79 + x80 + x81 + x82 + x83
       + x84 + x85 + x86 + x87 + x88 + x89 + x90 + x91 + x92 + x93 + x94 + x95
       + x96 >= -58.6262462365591
 c207: x1 + x2 + x3 + x4 + x5 + x6 + x7 + x8 + x9 + x10 + x11 + x12 + x13 + x14
       + x15 + x16 + x17 + x18 + x19 + x20 + x21 + x66 + x67 + x68 + x69 + x70
       + x71 + x72 + x73 + x74 + x75 + x76 + x77 + x78 + x79 + x80 + x81 + x82
       + x83 + x84 + x85 + x86 + x87 + x88 + x89 + x90 + x91 + x92 + x93 + x94
       + x95 + x96 <= 21.8040612903226
 c209: x1 + x2 + x3 + x4 + x5 + x6 + x7 + x8 + x9 + x10 + x11 + x12 + x13 + x14
       + x15 + x16 + x17 + x18 + x19 + x20 + x21 + x66 + x67 + x68 + x69 + x70
       + x71 + x72 + x73 + x74 + x75 + x76 + x77 + x78 + x79 + x80 + x81 + x82
       + x83 + x84 + x85 + x86 + x87 + x88 + x89 + x90 + x91 + x92 + x93 + x94
       + x95 + x96 >= -58.6262462365591
 c211: x1 + x2 + x3 + x4 + x5 + x6 + x7 + x8 + x9 + x10 + x11 + x12 + x13 + x14
       + x15 + x16 + x17 + x18 + x19 + x20 + x21 + x22 + x66 + x67 + x68 + x69
       + x70 + x71 + x72 + x73 + x74 + x75 + x76 + x77 + x78 + x79 + x80 + x81
       + x82 + x83 + x84 + x85 + x86 + x87 + x88 + x89 + x90 + x91 + x92 + x93
       + x94 + x95 + x96 <= 21.8040612903226
 c213: x1 + x2 + x3 + x4 + x5 + x6 + x7 + x8 + x9 + x10 + x11 + x12 + x13 + x14
       + x15 + x16 + x17 + x18 + x19 + x20 + x21 + x22 + x66 + x67 + x68 + x69
       + x70 + x71 + x72 + x73 + x74 + x75 + x76 + x77 + x78 + x79 + x80 + x81
       + x82 + x83 + x84 + x85 + x86 + x87 + x88 + x89 + x90 + x91 + x92 + x93
       + x94 + x95 + x96 >= -58.6262462365591
 c215: x1 + x2 + x3 + x4 + x5 + x6 + x7 + x8 + x9 + x10 + x11 + x12 + x13 + x14
       + x15 + x16 + x17 + x18 + x19 + x20 + x21 + x22 + x23 + x66 + x67 + x68
       + x69 + x70 + x71 + x72 + x73 + x74 + x75 + x76 + x77 + x78 + x79 + x80
       + x81 + x82 + x83 + x84 + x85 + x86 + x87 + x88 + x89 + x90 + x91 + x92
       + x93 + x94 + x95 + x96 <= 21.8040612903226
 c217: x1 + x2 + x3 + x4 + x5 + x6 + x7 + x8 + x9 + x10 + x11 + x12 + x13 + x14
       + x15 + x16 + x17 + x18 + x19 + x20 + x21 + x22 + x23 + x66 + x67 + x68
       + x69 + x70 + x71 + x72 + x73 + x74 + x75 + x76 + x77 + x78 + x79 + x80
       + x81 + x82 + x83 + x84 + x85 + x86 + x87 + x88 + x89 + x90 + x91 + x92
       + x93 + x94 + x95 + x96 >= -58.6262462365591
 c219: x1 + x2 + x3 + x4 + x5 + x6 + x7 + x8 + x9 + x10 + x11 + x12 + x13 + x14
       + x15 + x16 + x17 + x18 + x19 + x20 + x21 + x22 + x23 + x24 + x66 + x67
       + x68 + x69 + x70 + x71 + x72 + x73 + x74 + x75 + x76 + x77 + x78 + x79
       + x80 + x81 + x82 + x83 + x84 + x85 + x86 + x87 + x88 + x89 + x90 + x91
       + x92 + x93 + x94 + x95 + x96 <= 21.8040612903226
 c221: x1 + x2 + x3 + x4 + x5 + x6 + x7 + x8 + x9 + x10 + x11 + x12 + x13 7 + x18 + x19 + x20 + x21 + x22 + x23 + x24 + x25 + x67
       + x68 + x69 + x70 + x71 + x72 + x73 + x74 + x75 + x76 + x77 + x78 + x79
       + x80 + x81 + x82 + x83 + x84 + x85 + x86 + x87 + x88 + x89 + x90 + x91
       + x92 + x93 + x94 + x95 + x96 >= -61.7410978494624
 c223: x1 + x2 + x3 + x4 + x5 + x6 + x7 + x8 + x9 + x10 + x11 + x12 + x13 + x14
       + x15 + x16 + x17 + x18 + x19 + x20 + x21 + x22 + x23 + x24 + x25 + x26
       + x67 + x68 + x69 + x70 + x71 + x72 + x73 + x74 + x75 + x76 + x77 + x78
       + x79 + x80 + x81 + x82 + x83 + x84 + x85 + x86 + x87 + x88 + x89 + x90
       + x91 + x92 + x93 + x94 + x95 + x96 <= 18.6892096774194
 c225: x1 + x2 + x3 + x4 + x5 + x6 + x7 + x8 + x9 + x10 + x11 + x12 + x13 + x14
       + x15 + x16 + x17 + x18 + x19 + x20 + x21 + x22 + x23 + x24 + x25 + x26
       + x67 + x68 + x69 + x70 + x71 + x72 + x73 + x74 + x75 + x76 + x77 + x78
       + x79 + x80 + x81 + x82 + x83 + x84 + x85 + x86 + x87 + x88 + x89 + x90
       + x91 + x92 + x93 + x94 + x95 + x96 >= -61.7410978494624
Bounds
-4 <= x1 <= 4
-4 <= x2 <= 4
-4 <= x3 <= 4
-4 <= x4 <= 4
-4 <= x5 <= 4
-4 <= x6 <= 4
-4 <= x7 <= 4
-4 <= x8 <= 4
-4 <= x9 <= 4
-4 <= x10 <= 4
-4 <= x11 <= 4
-4 <= x12 <= 4
-4 <= x13 <= 4
-4 <= x14 <= 4
-4 <= x15 <= 4
-4 <= x16 <= 4
-4 <= x17 <= 4
-4 <= x18 <= 4
-4 <= x19 <= 4
-4 <= x20 <= 4
-4 <= x21 <= 4
-4 <= x22 <= 4
-4 <= x23 <= 4
-4 <= x24 <= 4
-4 <= x25 <= 4
-4 <= x26 <= 4
      x27 = 0
      x28 = 0
      x29 = 0
      x30 = 0
      x31 = 0
      x32 = 0
      x33 = 0
      x34 = 0
      x35 = 0
      x36 = 0
      x37 = 0
      x38 = 0
      x39 = 0
      x40 = 0
      x41 = 0
      x42 = 0
      x43 = 0
      x44 = 0
      x45 = 0
      x46 = 0
      x47 = 0
      x48 = 0
      x49 = 0
      x50 = 0
      x51 = 0
      x52 = 0
      x53 = 0
      x54 = 0
      x55 = 0
      x56 = 0
      x57 = 0
      x58 = 0
      x59 = 0
      x60 = 0
      x61 = 0
      x62 = 0
      x63 = 0
      x64 = 0
      x65 = 0
      x66 = 0
-4 <= x67 <= 4
-4 <= x68 <= 4
-4 <= x69 <= 4
-4 <= x70 <= 4
-4 <= x71 <= 4
-4 <= x72 <= 4
-4 <= x73 <= 4
-4 <= x74 <= 4
-4 <= x75 <= 4
-4 <= x76 <= 4
-4 <= x77 <= 4
-4 <= x78 <= 4
-4 <= x79 <= 4
-4 <= x80 <= 4
-4 <= x81 <= 4
-4 <= x82 <= 4
-4 <= x83 <= 4
-4 <= x84 <= 4
-4 <= x85 <= 4
-4 <= x86 <= 4
-4 <= x87 <= 4
-4 <= x88 <= 4
-4 <= x89 <= 4
-4 <= x90 <= 4
-4 <= x91 <= 4
-4 <= x92 <= 4
-4 <= x93 <= 4
-4 <= x94 <= 4
-4 <= x95 <= 4
-4 <= x96 <= 4
End
+ x72 + x73 + x74 + x75 + x76
       + x77 + x78 + x79 + x80 + x81 + x82 + x83 + x84 + x85 + x86 + x87 + x88
       + x89 + x90 + x91 + x92 + x93 + x94 + x95 + x96 >= -58.6262462365591
 c235: x1 + x2 + x3 + x4 + x5 + x6 + x7 + x8 + x9 + x10 + x11 + x12 + x13 + x14
       + x15 + x16 + x17 + x18 + x19 + x20 + x21 + x22 + x23 + x24 + x25 + x26
       + x27 + x28 + x66 + x67 + x68 + x69 + x70 + x71 + x72 + x73 + x74 + x75
       + x76 + x77 + x78 + x79 + x80 + x81 + x82 + x83 + x84 + x85 + x86 + x87
       + x88 + x89 + x90 + x91 + x92 + x93 + x94 + x95 + x96
       <= 21.8040612903226
 c237: x1 + x2 + x3 + x4 + x5 + x6 + x7 + x8 + x9 + x10 + x11 + x12 + x13 + x14
       + x15 + x16 + x17 + x18 + x19 + x20 + x21 + x22 + x23 + x24 + x25 + x26
       + x27 + x28 + x66 + x67 + x68 + x69 + x70 + x71 + x72 + x73 + x74 + x75
       + x76 + x77 + x78 + x79 + x80 + x81 + x82 + x83 + x84 + x85 + x86 + x87
       + x88 + x89 + x90 + x91 + x92 + x93 + x94 + x95 + x96
       >= -58.6262462365591
 c239: x1 + x2 + x3 + x4 + x5 + x6 + x7 + x8 + x9 + x10 + x11 + x12 + x13 + x14
       + x15 + x16 + x17 + x18 + x19 + x20 + x21 + x22 + x23 + x24 + x25 + x26
       + x27 + x28 + x29 + x66 + x67 + x68 + x69 + x70 + x71 + x72 + x73 + x74
       + x75 + x76 + x77 + x78 + x79 + x80 + x81 + x82 + x83 + x84 + x85 + x86
       + x87 + x88 + x89 + x90 + x91 + x92 + x93 + x94 + x95 + x96
       <= 21.8040612903226
 c241: x1 + x2 + x3 + x4 + x5 + x6 + x7 + x8 + x9 + x10 + x11 + x12 + x13 + x14
       + x15 + x16 + x17 + x18 + x19 + x20 + x21 + x22 + x23 + x24 + x25 + x26
       + x27 + x28 + x29 + x66 + x67 + x68 + x69 + x70 + x71 + x72 + x73 + x74
       + x75 + x76 + x77 + x78 + x79 + x80 + x81 + x82 + x83 + x84 + x85 + x86
       + x87 + x88 + x89 + x90 + x91 + x92 + x93 + x94 + x95 + x96
       >= -58.6262462365591
 c243: x1 + x2 + x3 + x4 + x5 + x6 + x7 + x8 + x9 + x10 + x11 + x12 + x13 + x14
       + x15 + x16 + x17 + x18 + x19 + x20 + x21 + x22 + x23 + x24 + x25 + x26
       + x27 + x28 + x29 + x30 + x66 + x67 + x68 + x69 + x70 + x71 + x72 + x73
       + x74 + x75 + x76 + x77 + x78 + x79 + x80 + x81 + x82 + x83 + x84 + x85
       + x86 + x87 + x88 + x89 + x90 + x91 + x92 + x93 + x94 + x95 + x96
       <= 21.8040612903226
 c245: x1 + x2 + x3 + x4 + x5 + x6 + x7 + x8 + x9 + x10 + x11 + x12 + x13 + x14
       + x15 + x16 + x17 + x18 + x19 + x20 + x21 + x22 + x23 + x24 + x25 + x26
       + x27 + x28 + x29 + x30 + x66 + x67 + x68 + x69 + x70 + x71 + x72 + x73
       + x74 + x75 + x76 + x77 + x78 + x79 + x80 + x81 + x82 + x83 + x84 + x85
       + x86 + x87 + x88 + x89 + x90 + x91 + x92 + x93 + x94 + x95 + x96
       >= -58.6262462365591
Bounds
-4 <= x1 <= 4
-4 <= x2 <= 4
-4 <= x3 <= 4
-4 <= x4 <= 4
-4 <= x5 <= 4
-4 <= x6 <= 4
-4 <= x7 <= 4
-4 <= x8 <= 4
-4 <= x9 <= 4
-4 <= x10 <= 4
-4 <= x11 <= 4
-4 <= x12 <= 4
-4 <= x13 <= 4
-4 <= x14 <= 4
-4 <= x15 <= 4
-4 <= x16 <= 4
-4 <= x17 <= 4
-4 <= x18 <= 4
-4 <= x19 <= 4
-4 <= x20 <= 4
-4 <= x21 <= 4
-4 <= x22 <= 4
-4 <= x23 <= 4
-4 <= x24 <= 4
-4 <= x25 <= 4
-4 <= x26 <= 4
-4 <= x27 <= 4
-4 <= x28 <= 4
-4 <= x29 <= 4
-4 <= x30 <= 4
      x31 = 0
      x32 = 0
      x33 = 0
      x34 = 0
      x35 = 0
      x36 = 0
      x37 = 0
      x38 = 0
      x39 = 0
      x40 = 0
      x41 = 0
      x42 = 0
      x43 = 0
      x44 = 0
      x45 = 0
      x46 = 0
      x47 = 0
      x48 = 0
      x49 = 0
      x50 = 0
      x51 = 0
      x52 = 0
      x53 = 0
      x54 = 0
      x55 = 0
      x56 = 0
      x57 = 0
      x58 = 0
      x59 = 0
      x60 = 0
      x61 = 0
      x62 = 0
      x63 = 0
      x64 = 0
      x65 = 0
-4 <= x66 <= 4
-4 <= x67 <= 4
-4 <= x68 <= 4
-4 <= x69 <= 4
-4 <= x70 <= 4
-4 <= x71 <= 4
-4 <= x72 <= 4
-4 <= x73 <= 4
-4 <= x74 <= 4
-4 <= x75 <= 4
-4 <= x76 <= 4
-4 <= x77 <= 4
-4 <= x78 <= 4
-4 <= x79 <= 4
-4 <= x80 <= 4
-4 <= x81 <= 4
-4 <= x82 <= 4
-4 <= x83 <= 4
-4 <= x84 <= 4
-4 <= x85 <= 4
-4 <= x86 <= 4
-4 <= x87 <= 4
-4 <= x88 <= 4
-4 <= x89 <= 4
-4 <= x90 <= 4
-4 <= x91 <= 4
-4 <= x92 <= 4
-4 <= x93 <= 4
-4 <= x94 <= 4
-4 <= x95 <= 4
-4 <= x96 <= 4
End
